* #variable= 216 #constraint= 489 
-1 x19 +1 x1 >= 0 ;
-1 x19 +1 x10 >= 0 ;
+1 x19 -1 x1 -1 x10 >= -1 ;
+1 x19 +2 x28 +4 x37 +8 x46 +16 x55 +32 x64 +64 x73 +128 x82 +256 x91 +2 x20 +4 x29 +8 x38 +16 x47 +32 x56 +64 x65 +128 x74 +256 x83 +512 x92 +4 x21 +8 x30 +16 x39 +32 x48 +64 x57 +128 x66 +256 x75 +512 x84 +1024 x93 +8 x22 +16 x31 +32 x40 +64 x49 +128 x58 +256 x67 +512 x76 +1024 x85 +2048 x94 +16 x23 +32 x32 +64 x41 +128 x50 +256 x59 +512 x68 +1024 x77 +2048 x86 +4096 x95 +32 x24 +64 x33 +128 x42 +256 x51 +512 x60 +1024 x69 +2048 x78 +4096 x87 +8192 x96 +64 x25 +128 x34 +256 x43 +512 x52 +1024 x61 +2048 x70 +4096 x79 +8192 x88 +16384 x97 +128 x26 +256 x35 +512 x44 +1024 x53 +2048 x62 +4096 x71 +8192 x80 +16384 x89 +32768 x98 +256 x27 +512 x36 +1024 x45 +2048 x54 +4096 x63 +8192 x72 +16384 x81 +32768 x90 +65536 x99 -1 x199 -2 x200 -4 x201 -8 x202 -16 x203 -32 x204 -64 x205 -128 x206 -256 x207 -512 x208 -1024 x209 -2048 x210 -4096 x211 -8192 x212 -16384 x213 -32768 x214 -65536 x215 -131072 x216 = 0; 
-1 x100 +1 x10 >= 0 ;
-1 x100 +1 x1 >= 0 ;
+1 x100 -1 x10 -1 x1 >= -1 ;
+1 x100 +2 x109 +4 x118 +8 x127 +16 x136 +32 x145 +64 x154 +128 x163 +256 x172 +2 x101 +4 x110 +8 x119 +16 x128 +32 x137 +64 x146 +128 x155 +256 x164 +512 x173 +4 x102 +8 x111 +16 x120 +32 x129 +64 x138 +128 x147 +256 x156 +512 x165 +1024 x174 +8 x103 +16 x112 +32 x121 +64 x130 +128 x139 +256 x148 +512 x157 +1024 x166 +2048 x175 +16 x104 +32 x113 +64 x122 +128 x131 +256 x140 +512 x149 +1024 x158 +2048 x167 +4096 x176 +32 x105 +64 x114 +128 x123 +256 x132 +512 x141 +1024 x150 +2048 x159 +4096 x168 +8192 x177 +64 x106 +128 x115 +256 x124 +512 x133 +1024 x142 +2048 x151 +4096 x160 +8192 x169 +16384 x178 +128 x107 +256 x116 +512 x125 +1024 x134 +2048 x143 +4096 x152 +8192 x161 +16384 x170 +32768 x179 +256 x108 +512 x117 +1024 x126 +2048 x135 +4096 x144 +8192 x153 +16384 x162 +32768 x171 +65536 x180 -1 x181 -2 x182 -4 x183 -8 x184 -16 x185 -32 x186 -64 x187 -128 x188 -256 x189 -512 x190 -1024 x191 -2048 x192 -4096 x193 -8192 x194 -16384 x195 -32768 x196 -65536 x197 -131072 x198 = 0; 
-1 x199 +1 x181 -2 x200 +2 x182 -4 x201 +4 x183 -8 x202 +8 x184 -16 x203 +16 x185 -32 x204 +32 x186 -64 x205 +64 x187 -128 x206 +128 x188 -256 x207 +256 x189 -512 x208 +512 x190 -1024 x209 +1024 x191 -2048 x210 +2048 x192 -4096 x211 +4096 x193 -8192 x212 +8192 x194 -16384 x213 +16384 x195 -32768 x214 +32768 x196 -65536 x215 +65536 x197 -131072 x216 +131072 x198 >= 1 ;
-1 x28 +1 x2 >= 0 ;
-1 x28 +1 x10 >= 0 ;
+1 x28 -1 x2 -1 x10 >= -1 ;
-1 x20 +1 x1 >= 0 ;
-1 x20 +1 x11 >= 0 ;
+1 x20 -1 x1 -1 x11 >= -1 ;
-1 x109 +1 x11 >= 0 ;
-1 x109 +1 x1 >= 0 ;
+1 x109 -1 x11 -1 x1 >= -1 ;
-1 x101 +1 x10 >= 0 ;
-1 x101 +1 x2 >= 0 ;
+1 x101 -1 x10 -1 x2 >= -1 ;
-1 x37 +1 x3 >= 0 ;
-1 x37 +1 x10 >= 0 ;
+1 x37 -1 x3 -1 x10 >= -1 ;
-1 x29 +1 x2 >= 0 ;
-1 x29 +1 x11 >= 0 ;
+1 x29 -1 x2 -1 x11 >= -1 ;
-1 x21 +1 x1 >= 0 ;
-1 x21 +1 x12 >= 0 ;
+1 x21 -1 x1 -1 x12 >= -1 ;
-1 x118 +1 x12 >= 0 ;
-1 x118 +1 x1 >= 0 ;
+1 x118 -1 x12 -1 x1 >= -1 ;
-1 x110 +1 x11 >= 0 ;
-1 x110 +1 x2 >= 0 ;
+1 x110 -1 x11 -1 x2 >= -1 ;
-1 x102 +1 x10 >= 0 ;
-1 x102 +1 x3 >= 0 ;
+1 x102 -1 x10 -1 x3 >= -1 ;
-1 x46 +1 x4 >= 0 ;
-1 x46 +1 x10 >= 0 ;
+1 x46 -1 x4 -1 x10 >= -1 ;
-1 x38 +1 x3 >= 0 ;
-1 x38 +1 x11 >= 0 ;
+1 x38 -1 x3 -1 x11 >= -1 ;
-1 x30 +1 x2 >= 0 ;
-1 x30 +1 x12 >= 0 ;
+1 x30 -1 x2 -1 x12 >= -1 ;
-1 x22 +1 x1 >= 0 ;
-1 x22 +1 x13 >= 0 ;
+1 x22 -1 x1 -1 x13 >= -1 ;
-1 x127 +1 x13 >= 0 ;
-1 x127 +1 x1 >= 0 ;
+1 x127 -1 x13 -1 x1 >= -1 ;
-1 x119 +1 x12 >= 0 ;
-1 x119 +1 x2 >= 0 ;
+1 x119 -1 x12 -1 x2 >= -1 ;
-1 x111 +1 x11 >= 0 ;
-1 x111 +1 x3 >= 0 ;
+1 x111 -1 x11 -1 x3 >= -1 ;
-1 x103 +1 x10 >= 0 ;
-1 x103 +1 x4 >= 0 ;
+1 x103 -1 x10 -1 x4 >= -1 ;
-1 x55 +1 x5 >= 0 ;
-1 x55 +1 x10 >= 0 ;
+1 x55 -1 x5 -1 x10 >= -1 ;
-1 x47 +1 x4 >= 0 ;
-1 x47 +1 x11 >= 0 ;
+1 x47 -1 x4 -1 x11 >= -1 ;
-1 x39 +1 x3 >= 0 ;
-1 x39 +1 x12 >= 0 ;
+1 x39 -1 x3 -1 x12 >= -1 ;
-1 x31 +1 x2 >= 0 ;
-1 x31 +1 x13 >= 0 ;
+1 x31 -1 x2 -1 x13 >= -1 ;
-1 x23 +1 x1 >= 0 ;
-1 x23 +1 x14 >= 0 ;
+1 x23 -1 x1 -1 x14 >= -1 ;
-1 x136 +1 x14 >= 0 ;
-1 x136 +1 x1 >= 0 ;
+1 x136 -1 x14 -1 x1 >= -1 ;
-1 x128 +1 x13 >= 0 ;
-1 x128 +1 x2 >= 0 ;
+1 x128 -1 x13 -1 x2 >= -1 ;
-1 x120 +1 x12 >= 0 ;
-1 x120 +1 x3 >= 0 ;
+1 x120 -1 x12 -1 x3 >= -1 ;
-1 x112 +1 x11 >= 0 ;
-1 x112 +1 x4 >= 0 ;
+1 x112 -1 x11 -1 x4 >= -1 ;
-1 x104 +1 x10 >= 0 ;
-1 x104 +1 x5 >= 0 ;
+1 x104 -1 x10 -1 x5 >= -1 ;
-1 x64 +1 x6 >= 0 ;
-1 x64 +1 x10 >= 0 ;
+1 x64 -1 x6 -1 x10 >= -1 ;
-1 x56 +1 x5 >= 0 ;
-1 x56 +1 x11 >= 0 ;
+1 x56 -1 x5 -1 x11 >= -1 ;
-1 x48 +1 x4 >= 0 ;
-1 x48 +1 x12 >= 0 ;
+1 x48 -1 x4 -1 x12 >= -1 ;
-1 x40 +1 x3 >= 0 ;
-1 x40 +1 x13 >= 0 ;
+1 x40 -1 x3 -1 x13 >= -1 ;
-1 x32 +1 x2 >= 0 ;
-1 x32 +1 x14 >= 0 ;
+1 x32 -1 x2 -1 x14 >= -1 ;
-1 x24 +1 x1 >= 0 ;
-1 x24 +1 x15 >= 0 ;
+1 x24 -1 x1 -1 x15 >= -1 ;
-1 x145 +1 x15 >= 0 ;
-1 x145 +1 x1 >= 0 ;
+1 x145 -1 x15 -1 x1 >= -1 ;
-1 x137 +1 x14 >= 0 ;
-1 x137 +1 x2 >= 0 ;
+1 x137 -1 x14 -1 x2 >= -1 ;
-1 x129 +1 x13 >= 0 ;
-1 x129 +1 x3 >= 0 ;
+1 x129 -1 x13 -1 x3 >= -1 ;
-1 x121 +1 x12 >= 0 ;
-1 x121 +1 x4 >= 0 ;
+1 x121 -1 x12 -1 x4 >= -1 ;
-1 x113 +1 x11 >= 0 ;
-1 x113 +1 x5 >= 0 ;
+1 x113 -1 x11 -1 x5 >= -1 ;
-1 x105 +1 x10 >= 0 ;
-1 x105 +1 x6 >= 0 ;
+1 x105 -1 x10 -1 x6 >= -1 ;
-1 x73 +1 x7 >= 0 ;
-1 x73 +1 x10 >= 0 ;
+1 x73 -1 x7 -1 x10 >= -1 ;
-1 x65 +1 x6 >= 0 ;
-1 x65 +1 x11 >= 0 ;
+1 x65 -1 x6 -1 x11 >= -1 ;
-1 x57 +1 x5 >= 0 ;
-1 x57 +1 x12 >= 0 ;
+1 x57 -1 x5 -1 x12 >= -1 ;
-1 x49 +1 x4 >= 0 ;
-1 x49 +1 x13 >= 0 ;
+1 x49 -1 x4 -1 x13 >= -1 ;
-1 x41 +1 x3 >= 0 ;
-1 x41 +1 x14 >= 0 ;
+1 x41 -1 x3 -1 x14 >= -1 ;
-1 x33 +1 x2 >= 0 ;
-1 x33 +1 x15 >= 0 ;
+1 x33 -1 x2 -1 x15 >= -1 ;
-1 x25 +1 x1 >= 0 ;
-1 x25 +1 x16 >= 0 ;
+1 x25 -1 x1 -1 x16 >= -1 ;
-1 x154 +1 x16 >= 0 ;
-1 x154 +1 x1 >= 0 ;
+1 x154 -1 x16 -1 x1 >= -1 ;
-1 x146 +1 x15 >= 0 ;
-1 x146 +1 x2 >= 0 ;
+1 x146 -1 x15 -1 x2 >= -1 ;
-1 x138 +1 x14 >= 0 ;
-1 x138 +1 x3 >= 0 ;
+1 x138 -1 x14 -1 x3 >= -1 ;
-1 x130 +1 x13 >= 0 ;
-1 x130 +1 x4 >= 0 ;
+1 x130 -1 x13 -1 x4 >= -1 ;
-1 x122 +1 x12 >= 0 ;
-1 x122 +1 x5 >= 0 ;
+1 x122 -1 x12 -1 x5 >= -1 ;
-1 x114 +1 x11 >= 0 ;
-1 x114 +1 x6 >= 0 ;
+1 x114 -1 x11 -1 x6 >= -1 ;
-1 x106 +1 x10 >= 0 ;
-1 x106 +1 x7 >= 0 ;
+1 x106 -1 x10 -1 x7 >= -1 ;
-1 x82 +1 x8 >= 0 ;
-1 x82 +1 x10 >= 0 ;
+1 x82 -1 x8 -1 x10 >= -1 ;
-1 x74 +1 x7 >= 0 ;
-1 x74 +1 x11 >= 0 ;
+1 x74 -1 x7 -1 x11 >= -1 ;
-1 x66 +1 x6 >= 0 ;
-1 x66 +1 x12 >= 0 ;
+1 x66 -1 x6 -1 x12 >= -1 ;
-1 x58 +1 x5 >= 0 ;
-1 x58 +1 x13 >= 0 ;
+1 x58 -1 x5 -1 x13 >= -1 ;
-1 x50 +1 x4 >= 0 ;
-1 x50 +1 x14 >= 0 ;
+1 x50 -1 x4 -1 x14 >= -1 ;
-1 x42 +1 x3 >= 0 ;
-1 x42 +1 x15 >= 0 ;
+1 x42 -1 x3 -1 x15 >= -1 ;
-1 x34 +1 x2 >= 0 ;
-1 x34 +1 x16 >= 0 ;
+1 x34 -1 x2 -1 x16 >= -1 ;
-1 x26 +1 x1 >= 0 ;
-1 x26 +1 x17 >= 0 ;
+1 x26 -1 x1 -1 x17 >= -1 ;
-1 x163 +1 x17 >= 0 ;
-1 x163 +1 x1 >= 0 ;
+1 x163 -1 x17 -1 x1 >= -1 ;
-1 x155 +1 x16 >= 0 ;
-1 x155 +1 x2 >= 0 ;
+1 x155 -1 x16 -1 x2 >= -1 ;
-1 x147 +1 x15 >= 0 ;
-1 x147 +1 x3 >= 0 ;
+1 x147 -1 x15 -1 x3 >= -1 ;
-1 x139 +1 x14 >= 0 ;
-1 x139 +1 x4 >= 0 ;
+1 x139 -1 x14 -1 x4 >= -1 ;
-1 x131 +1 x13 >= 0 ;
-1 x131 +1 x5 >= 0 ;
+1 x131 -1 x13 -1 x5 >= -1 ;
-1 x123 +1 x12 >= 0 ;
-1 x123 +1 x6 >= 0 ;
+1 x123 -1 x12 -1 x6 >= -1 ;
-1 x115 +1 x11 >= 0 ;
-1 x115 +1 x7 >= 0 ;
+1 x115 -1 x11 -1 x7 >= -1 ;
-1 x107 +1 x10 >= 0 ;
-1 x107 +1 x8 >= 0 ;
+1 x107 -1 x10 -1 x8 >= -1 ;
-1 x91 +1 x9 >= 0 ;
-1 x91 +1 x10 >= 0 ;
+1 x91 -1 x9 -1 x10 >= -1 ;
-1 x83 +1 x8 >= 0 ;
-1 x83 +1 x11 >= 0 ;
+1 x83 -1 x8 -1 x11 >= -1 ;
-1 x75 +1 x7 >= 0 ;
-1 x75 +1 x12 >= 0 ;
+1 x75 -1 x7 -1 x12 >= -1 ;
-1 x67 +1 x6 >= 0 ;
-1 x67 +1 x13 >= 0 ;
+1 x67 -1 x6 -1 x13 >= -1 ;
-1 x59 +1 x5 >= 0 ;
-1 x59 +1 x14 >= 0 ;
+1 x59 -1 x5 -1 x14 >= -1 ;
-1 x51 +1 x4 >= 0 ;
-1 x51 +1 x15 >= 0 ;
+1 x51 -1 x4 -1 x15 >= -1 ;
-1 x43 +1 x3 >= 0 ;
-1 x43 +1 x16 >= 0 ;
+1 x43 -1 x3 -1 x16 >= -1 ;
-1 x35 +1 x2 >= 0 ;
-1 x35 +1 x17 >= 0 ;
+1 x35 -1 x2 -1 x17 >= -1 ;
-1 x27 +1 x1 >= 0 ;
-1 x27 +1 x18 >= 0 ;
+1 x27 -1 x1 -1 x18 >= -1 ;
-1 x172 +1 x18 >= 0 ;
-1 x172 +1 x1 >= 0 ;
+1 x172 -1 x18 -1 x1 >= -1 ;
-1 x164 +1 x17 >= 0 ;
-1 x164 +1 x2 >= 0 ;
+1 x164 -1 x17 -1 x2 >= -1 ;
-1 x156 +1 x16 >= 0 ;
-1 x156 +1 x3 >= 0 ;
+1 x156 -1 x16 -1 x3 >= -1 ;
-1 x148 +1 x15 >= 0 ;
-1 x148 +1 x4 >= 0 ;
+1 x148 -1 x15 -1 x4 >= -1 ;
-1 x140 +1 x14 >= 0 ;
-1 x140 +1 x5 >= 0 ;
+1 x140 -1 x14 -1 x5 >= -1 ;
-1 x132 +1 x13 >= 0 ;
-1 x132 +1 x6 >= 0 ;
+1 x132 -1 x13 -1 x6 >= -1 ;
-1 x124 +1 x12 >= 0 ;
-1 x124 +1 x7 >= 0 ;
+1 x124 -1 x12 -1 x7 >= -1 ;
-1 x116 +1 x11 >= 0 ;
-1 x116 +1 x8 >= 0 ;
+1 x116 -1 x11 -1 x8 >= -1 ;
-1 x108 +1 x10 >= 0 ;
-1 x108 +1 x9 >= 0 ;
+1 x108 -1 x10 -1 x9 >= -1 ;
-1 x92 +1 x9 >= 0 ;
-1 x92 +1 x11 >= 0 ;
+1 x92 -1 x9 -1 x11 >= -1 ;
-1 x84 +1 x8 >= 0 ;
-1 x84 +1 x12 >= 0 ;
+1 x84 -1 x8 -1 x12 >= -1 ;
-1 x76 +1 x7 >= 0 ;
-1 x76 +1 x13 >= 0 ;
+1 x76 -1 x7 -1 x13 >= -1 ;
-1 x68 +1 x6 >= 0 ;
-1 x68 +1 x14 >= 0 ;
+1 x68 -1 x6 -1 x14 >= -1 ;
-1 x60 +1 x5 >= 0 ;
-1 x60 +1 x15 >= 0 ;
+1 x60 -1 x5 -1 x15 >= -1 ;
-1 x52 +1 x4 >= 0 ;
-1 x52 +1 x16 >= 0 ;
+1 x52 -1 x4 -1 x16 >= -1 ;
-1 x44 +1 x3 >= 0 ;
-1 x44 +1 x17 >= 0 ;
+1 x44 -1 x3 -1 x17 >= -1 ;
-1 x36 +1 x2 >= 0 ;
-1 x36 +1 x18 >= 0 ;
+1 x36 -1 x2 -1 x18 >= -1 ;
-1 x173 +1 x18 >= 0 ;
-1 x173 +1 x2 >= 0 ;
+1 x173 -1 x18 -1 x2 >= -1 ;
-1 x165 +1 x17 >= 0 ;
-1 x165 +1 x3 >= 0 ;
+1 x165 -1 x17 -1 x3 >= -1 ;
-1 x157 +1 x16 >= 0 ;
-1 x157 +1 x4 >= 0 ;
+1 x157 -1 x16 -1 x4 >= -1 ;
-1 x149 +1 x15 >= 0 ;
-1 x149 +1 x5 >= 0 ;
+1 x149 -1 x15 -1 x5 >= -1 ;
-1 x141 +1 x14 >= 0 ;
-1 x141 +1 x6 >= 0 ;
+1 x141 -1 x14 -1 x6 >= -1 ;
-1 x133 +1 x13 >= 0 ;
-1 x133 +1 x7 >= 0 ;
+1 x133 -1 x13 -1 x7 >= -1 ;
-1 x125 +1 x12 >= 0 ;
-1 x125 +1 x8 >= 0 ;
+1 x125 -1 x12 -1 x8 >= -1 ;
-1 x117 +1 x11 >= 0 ;
-1 x117 +1 x9 >= 0 ;
+1 x117 -1 x11 -1 x9 >= -1 ;
-1 x93 +1 x9 >= 0 ;
-1 x93 +1 x12 >= 0 ;
+1 x93 -1 x9 -1 x12 >= -1 ;
-1 x85 +1 x8 >= 0 ;
-1 x85 +1 x13 >= 0 ;
+1 x85 -1 x8 -1 x13 >= -1 ;
-1 x77 +1 x7 >= 0 ;
-1 x77 +1 x14 >= 0 ;
+1 x77 -1 x7 -1 x14 >= -1 ;
-1 x69 +1 x6 >= 0 ;
-1 x69 +1 x15 >= 0 ;
+1 x69 -1 x6 -1 x15 >= -1 ;
-1 x61 +1 x5 >= 0 ;
-1 x61 +1 x16 >= 0 ;
+1 x61 -1 x5 -1 x16 >= -1 ;
-1 x53 +1 x4 >= 0 ;
-1 x53 +1 x17 >= 0 ;
+1 x53 -1 x4 -1 x17 >= -1 ;
-1 x45 +1 x3 >= 0 ;
-1 x45 +1 x18 >= 0 ;
+1 x45 -1 x3 -1 x18 >= -1 ;
-1 x174 +1 x18 >= 0 ;
-1 x174 +1 x3 >= 0 ;
+1 x174 -1 x18 -1 x3 >= -1 ;
-1 x166 +1 x17 >= 0 ;
-1 x166 +1 x4 >= 0 ;
+1 x166 -1 x17 -1 x4 >= -1 ;
-1 x158 +1 x16 >= 0 ;
-1 x158 +1 x5 >= 0 ;
+1 x158 -1 x16 -1 x5 >= -1 ;
-1 x150 +1 x15 >= 0 ;
-1 x150 +1 x6 >= 0 ;
+1 x150 -1 x15 -1 x6 >= -1 ;
-1 x142 +1 x14 >= 0 ;
-1 x142 +1 x7 >= 0 ;
+1 x142 -1 x14 -1 x7 >= -1 ;
-1 x134 +1 x13 >= 0 ;
-1 x134 +1 x8 >= 0 ;
+1 x134 -1 x13 -1 x8 >= -1 ;
-1 x126 +1 x12 >= 0 ;
-1 x126 +1 x9 >= 0 ;
+1 x126 -1 x12 -1 x9 >= -1 ;
-1 x94 +1 x9 >= 0 ;
-1 x94 +1 x13 >= 0 ;
+1 x94 -1 x9 -1 x13 >= -1 ;
-1 x86 +1 x8 >= 0 ;
-1 x86 +1 x14 >= 0 ;
+1 x86 -1 x8 -1 x14 >= -1 ;
-1 x78 +1 x7 >= 0 ;
-1 x78 +1 x15 >= 0 ;
+1 x78 -1 x7 -1 x15 >= -1 ;
-1 x70 +1 x6 >= 0 ;
-1 x70 +1 x16 >= 0 ;
+1 x70 -1 x6 -1 x16 >= -1 ;
-1 x62 +1 x5 >= 0 ;
-1 x62 +1 x17 >= 0 ;
+1 x62 -1 x5 -1 x17 >= -1 ;
-1 x54 +1 x4 >= 0 ;
-1 x54 +1 x18 >= 0 ;
+1 x54 -1 x4 -1 x18 >= -1 ;
-1 x175 +1 x18 >= 0 ;
-1 x175 +1 x4 >= 0 ;
+1 x175 -1 x18 -1 x4 >= -1 ;
-1 x167 +1 x17 >= 0 ;
-1 x167 +1 x5 >= 0 ;
+1 x167 -1 x17 -1 x5 >= -1 ;
-1 x159 +1 x16 >= 0 ;
-1 x159 +1 x6 >= 0 ;
+1 x159 -1 x16 -1 x6 >= -1 ;
-1 x151 +1 x15 >= 0 ;
-1 x151 +1 x7 >= 0 ;
+1 x151 -1 x15 -1 x7 >= -1 ;
-1 x143 +1 x14 >= 0 ;
-1 x143 +1 x8 >= 0 ;
+1 x143 -1 x14 -1 x8 >= -1 ;
-1 x135 +1 x13 >= 0 ;
-1 x135 +1 x9 >= 0 ;
+1 x135 -1 x13 -1 x9 >= -1 ;
-1 x95 +1 x9 >= 0 ;
-1 x95 +1 x14 >= 0 ;
+1 x95 -1 x9 -1 x14 >= -1 ;
-1 x87 +1 x8 >= 0 ;
-1 x87 +1 x15 >= 0 ;
+1 x87 -1 x8 -1 x15 >= -1 ;
-1 x79 +1 x7 >= 0 ;
-1 x79 +1 x16 >= 0 ;
+1 x79 -1 x7 -1 x16 >= -1 ;
-1 x71 +1 x6 >= 0 ;
-1 x71 +1 x17 >= 0 ;
+1 x71 -1 x6 -1 x17 >= -1 ;
-1 x63 +1 x5 >= 0 ;
-1 x63 +1 x18 >= 0 ;
+1 x63 -1 x5 -1 x18 >= -1 ;
-1 x176 +1 x18 >= 0 ;
-1 x176 +1 x5 >= 0 ;
+1 x176 -1 x18 -1 x5 >= -1 ;
-1 x168 +1 x17 >= 0 ;
-1 x168 +1 x6 >= 0 ;
+1 x168 -1 x17 -1 x6 >= -1 ;
-1 x160 +1 x16 >= 0 ;
-1 x160 +1 x7 >= 0 ;
+1 x160 -1 x16 -1 x7 >= -1 ;
-1 x152 +1 x15 >= 0 ;
-1 x152 +1 x8 >= 0 ;
+1 x152 -1 x15 -1 x8 >= -1 ;
-1 x144 +1 x14 >= 0 ;
-1 x144 +1 x9 >= 0 ;
+1 x144 -1 x14 -1 x9 >= -1 ;
-1 x96 +1 x9 >= 0 ;
-1 x96 +1 x15 >= 0 ;
+1 x96 -1 x9 -1 x15 >= -1 ;
-1 x88 +1 x8 >= 0 ;
-1 x88 +1 x16 >= 0 ;
+1 x88 -1 x8 -1 x16 >= -1 ;
-1 x80 +1 x7 >= 0 ;
-1 x80 +1 x17 >= 0 ;
+1 x80 -1 x7 -1 x17 >= -1 ;
-1 x72 +1 x6 >= 0 ;
-1 x72 +1 x18 >= 0 ;
+1 x72 -1 x6 -1 x18 >= -1 ;
-1 x177 +1 x18 >= 0 ;
-1 x177 +1 x6 >= 0 ;
+1 x177 -1 x18 -1 x6 >= -1 ;
-1 x169 +1 x17 >= 0 ;
-1 x169 +1 x7 >= 0 ;
+1 x169 -1 x17 -1 x7 >= -1 ;
-1 x161 +1 x16 >= 0 ;
-1 x161 +1 x8 >= 0 ;
+1 x161 -1 x16 -1 x8 >= -1 ;
-1 x153 +1 x15 >= 0 ;
-1 x153 +1 x9 >= 0 ;
+1 x153 -1 x15 -1 x9 >= -1 ;
-1 x97 +1 x9 >= 0 ;
-1 x97 +1 x16 >= 0 ;
+1 x97 -1 x9 -1 x16 >= -1 ;
-1 x89 +1 x8 >= 0 ;
-1 x89 +1 x17 >= 0 ;
+1 x89 -1 x8 -1 x17 >= -1 ;
-1 x81 +1 x7 >= 0 ;
-1 x81 +1 x18 >= 0 ;
+1 x81 -1 x7 -1 x18 >= -1 ;
-1 x178 +1 x18 >= 0 ;
-1 x178 +1 x7 >= 0 ;
+1 x178 -1 x18 -1 x7 >= -1 ;
-1 x170 +1 x17 >= 0 ;
-1 x170 +1 x8 >= 0 ;
+1 x170 -1 x17 -1 x8 >= -1 ;
-1 x162 +1 x16 >= 0 ;
-1 x162 +1 x9 >= 0 ;
+1 x162 -1 x16 -1 x9 >= -1 ;
-1 x98 +1 x9 >= 0 ;
-1 x98 +1 x17 >= 0 ;
+1 x98 -1 x9 -1 x17 >= -1 ;
-1 x90 +1 x8 >= 0 ;
-1 x90 +1 x18 >= 0 ;
+1 x90 -1 x8 -1 x18 >= -1 ;
-1 x179 +1 x18 >= 0 ;
-1 x179 +1 x8 >= 0 ;
+1 x179 -1 x18 -1 x8 >= -1 ;
-1 x171 +1 x17 >= 0 ;
-1 x171 +1 x9 >= 0 ;
+1 x171 -1 x17 -1 x9 >= -1 ;
-1 x99 +1 x9 >= 0 ;
-1 x99 +1 x18 >= 0 ;
+1 x99 -1 x9 -1 x18 >= -1 ;
-1 x180 +1 x18 >= 0 ;
-1 x180 +1 x9 >= 0 ;
+1 x180 -1 x18 -1 x9 >= -1 ;
